92	0

0	3	2	3	4
8	6	7	11	12	13	16	21
7	5	5	6	8	9	10
7	5	5	6	8	9	10
1	6	7	11	12	13	16	21
1	6	7	11	12	13	16	21
2	2	14	18
6	7	17	20	22	23	24	26	27
5	7	15	17	22	26	27	31	33
6	7	17	20	22	23	24	26	27
1	2	14	18
5	7	17	20	22	23	24	26	27
4	7	15	17	22	26	27	31	33
1	8	15	17	19	22	26	27	31	33
3	3	20	23	24
5	7	17	20	22	23	24	26	27
6	8	29	30	32	34	35	36	41	43
9	8	29	30	32	34	35	36	41	43
6	4	25	32	34	41
1	5	25	28	32	34	41
9	4	25	32	34	41
5	8	29	30	32	34	35	36	41	43
9	3	38	39	40
6	3	29	35	36
3	5	29	30	35	36	43
8	3	29	35	36
10	6	37	38	39	40	44	48
7	6	37	38	39	40	44	48
8	2	49	51
5	4	42	45	46	47
10	1	36
5	3	38	39	40
10	1	36
7	2	45	46
2	6	37	38	39	40	44	48
1	6	37	38	39	40	44	48
9	6	50	52	55	56	57	60
1	4	42	45	46	47
8	6	50	52	55	56	57	60
8	6	50	52	55	56	57	60
7	2	45	46
10	3	53	54	59
7	3	46	49	51
10	5	53	54	56	57	59
2	2	49	51
5	6	50	52	55	56	57	60
6	6	50	52	55	56	57	60
10	5	53	54	56	57	59
1	7	50	52	55	56	57	58	60
6	3	61	62	67
4	5	53	54	56	57	59
3	3	53	54	59
4	2	61	62
1	7	61	62	63	64	65	67	68
4	7	61	62	63	64	65	67	68
10	6	66	71	72	73	74	75
7	6	62	66	70	72	74	75
7	5	61	62	64	67	68
1	7	61	62	63	64	65	67	68
9	7	66	70	71	72	73	74	75
2	7	66	70	71	72	73	74	75
6	3	69	71	73
10	3	69	71	73
7	5	66	71	73	74	75
5	7	66	70	71	72	73	74	75
4	2	69	76
7	4	69	71	73	75
8	4	69	71	73	75
10	2	83	84
10	4	77	78	79	80
4	1	76
10	3	78	79	80
7	3	78	79	80
10	2	81	82
4	1	76
1	4	77	78	79	80
5	1	82
1	2	81	82
9	3	83	85	86
4	2	83	84
10	2	85	88
1	2	83	84
7	2	87	88
5	2	85	86
6	2	87	89
2	2	87	88
9	1	90
5	1	89
5	1	90
7	1	91
2	1	92
0	0
